NAME: S076D2_25
COMMENT: 1422.75
VEHICLE: 15
TIME: 141.8018
DIMENSION: 76
CAPACITY: 160
DELIVERY_SECTION
0 0 0
1 1 40
2 1 1.6
3 1 1.6
4 1 0.8
5 2 16
6 2 1.6
7 2 1.6
8 2 1.6
9 2 1.2
10 3 16
11 3 1.6
12 3 1.6
13 3 1.6
14 3 1.2
15 4 16
16 4 1.6
17 4 0.4
18 5 40
19 5 1.6
20 5 1.6
21 5 1.6
22 5 1.6
23 5 0.6
24 6 16
25 6 1.6
26 6 1.6
27 6 0.8
28 7 16
29 7 16
30 7 1.6
31 7 0.4
32 8 16
33 8 1.6
34 8 0.4
35 9 40
36 9 1.6
37 9 1.6
38 9 0.8
39 10 16
40 10 1
41 11 40
42 11 1.6
43 11 0.4
44 12 16
45 12 1.6
46 12 1.4
47 13 16
48 13 16
49 13 1.6
50 13 1.4
51 14 16
52 14 1.6
53 14 0.4
54 15 40
55 15 1.6
56 15 1.6
57 15 1.6
58 15 1.2
59 16 16
60 16 1.6
61 16 1.6
62 16 0.8
63 17 16
64 17 1.6
65 17 1.6
66 17 1.6
67 17 1.2
68 18 16
69 18 1.6
70 18 1.6
71 18 1.6
72 18 1.6
73 18 0.6
74 19 40
75 19 1.6
76 19 1.6
77 19 1.6
78 19 1.6
79 19 0.6
80 20 16
81 20 1.6
82 20 1.6
83 20 1.6
84 20 1.2
85 21 16
86 21 1.6
87 21 1.6
88 21 1.6
89 21 1.6
90 21 0.6
91 22 16
92 22 8
93 22 1.6
94 22 1.6
95 22 1.6
96 22 0.2
97 23 40
98 23 1.6
99 23 1.6
100 23 1.6
101 23 1.2
102 24 16
103 24 8
104 25 16
105 25 16
106 25 1.6
107 25 1.4
108 26 16
109 26 16
110 26 1.6
111 26 1.4
112 27 40
113 27 1.6
114 27 1.4
115 28 16
116 28 8
117 28 1.6
118 28 0.4
119 29 40
120 29 1.6
121 29 1.4
122 30 40
123 30 1
124 31 16
125 31 16
126 31 1.6
127 31 1.6
128 31 1.6
129 31 1.6
130 31 0.6
131 32 16
132 32 8
133 32 1.6
134 32 1.6
135 32 1.6
136 32 0.2
137 33 40
138 33 1.6
139 33 1.6
140 33 1.6
141 33 1.6
142 33 0.6
143 34 40
144 34 1.6
145 34 1.6
146 34 1.6
147 34 1.2
148 35 16
149 35 16
150 35 1.6
151 35 1.4
152 36 16
153 36 16
154 36 1
155 37 40
156 37 1.6
157 37 1.6
158 37 1.6
159 37 1.6
160 37 0.6
161 38 40
162 38 1.6
163 38 1.6
164 38 1.6
165 38 1.6
166 38 0.6
167 39 16
168 39 8
169 39 1.6
170 39 1.6
171 39 1.6
172 39 1.6
173 39 0.6
174 40 16
175 40 16
176 40 1.6
177 40 1.6
178 40 1.6
179 40 0.2
180 41 40
181 41 1.6
182 41 1.4
183 42 40
184 42 1.6
185 42 1.6
186 42 1.6
187 42 1.2
188 43 16
189 43 8
190 43 1.6
191 43 1.4
192 44 40
193 44 1
194 45 16
195 45 16
196 45 1.6
197 45 1.6
198 45 1.6
199 45 1.2
200 46 40
201 47 16
202 47 8
203 47 1
204 48 40
205 48 1.6
206 48 1.6
207 48 0.8
208 49 16
209 49 16
210 50 16
211 50 8
212 50 1.6
213 50 1.6
214 50 1.6
215 50 0.2
216 51 16
217 51 1.6
218 51 1.6
219 51 1.6
220 51 1.6
221 51 0.6
222 52 40
223 52 1.6
224 52 1.6
225 52 1.6
226 52 1.6
227 52 0.6
228 53 16
229 53 8
230 53 1.6
231 53 0.4
232 54 16
233 55 16
234 55 1.6
235 55 1.6
236 55 1.6
237 55 0.2
238 56 40
239 56 1.6
240 56 1.6
241 56 1.6
242 56 1.6
243 56 0.6
244 57 16
245 57 1.6
246 57 1.6
247 57 0.8
248 58 16
249 58 8
250 58 1.6
251 58 1.6
252 58 1.6
253 58 0.2
254 59 16
255 59 1.6
256 59 1.6
257 59 0.8
258 60 40
259 60 1.6
260 60 1.6
261 60 1.6
262 60 0.2
263 61 16
264 62 40
265 63 16
266 63 1.6
267 63 1.4
268 64 16
269 64 16
270 64 1.6
271 64 1.6
272 64 1.6
273 64 1.2
274 65 16
275 65 1.6
276 65 1.4
277 66 40
278 66 1.6
279 66 1.6
280 66 1.6
281 66 1.6
282 66 0.6
283 67 16
284 67 1.6
285 67 0.4
286 68 16
287 68 8
288 68 1.6
289 68 1.6
290 68 0.8
291 69 16
292 69 1.6
293 69 1.6
294 69 1.6
295 69 1.2
296 70 40
297 70 1.6
298 70 1.6
299 70 1.6
300 70 1.2
301 71 16
302 71 1.6
303 71 0.4
304 72 16
305 73 16
306 73 1.6
307 73 1.6
308 73 1.6
309 73 1.6
310 73 0.6
311 74 40
312 75 16
313 75 1.6
314 75 0.4
PICKUP_SECTION
NODE_SECTION
40 40

22 22

36 26

21 45

45 35

55 20

33 34

50 50

55 45

26 59

40 66

55 65

35 51

62 35

62 57

62 24

21 36

33 44

 9 56

62 48

66 14

44 13

26 13

11 28

 7 43

17 64

41 46

55 34

35 16

52 26

43 26

31 76

22 53

26 29

50 40

55 50

54 10

60 15

47 66

30 60

30 50

12 17

15 14

16 19

21 48

50 30

51 42

50 15

48 21

12 38

15 56

29 39

54 38

55 57

67 41

10 70

 6 25

65 27

40 60

70 64

64  4

36  6

30 20

20 30

15  5

50 70

57 72

45 42

38 33

50  4

66  8

59  5

35 60

27 24

40 20

40 37
DISTANCE_SECTION
DEPOT_SECTION
0
EOF